(set-logic HORN)
(declare-datatypes ((Nat_0 0)) (((Z_0 ) (S_0 (unS_0 Nat_0)))))
(declare-fun diseqNat_0 (Nat_0 Nat_0) Bool)
(declare-fun unS_1 (Nat_0 Nat_0) Bool)
(declare-fun isZ_0 (Nat_0) Bool)
(declare-fun isS_0 (Nat_0) Bool)
(assert (forall ((x_69 Nat_0) (x_68 Nat_0))
	(=> (= x_69 (S_0 x_68))
	    (unS_1 x_68 x_69))))
(assert (isZ_0 Z_0))
(assert (forall ((x_70 Nat_0))
	(isS_0 (S_0 x_70))))
(assert (forall ((x_71 Nat_0))
	(diseqNat_0 Z_0 (S_0 x_71))))
(assert (forall ((x_72 Nat_0))
	(diseqNat_0 (S_0 x_72) Z_0)))
(assert (forall ((x_73 Nat_0) (x_74 Nat_0))
	(=> (diseqNat_0 x_73 x_74)
	    (diseqNat_0 (S_0 x_73) (S_0 x_74)))))
(declare-fun add_0 (Nat_0 Nat_0 Nat_0) Bool)
(declare-fun minus_0 (Nat_0 Nat_0 Nat_0) Bool)
(declare-fun le_0 (Nat_0 Nat_0) Bool)
(declare-fun ge_0 (Nat_0 Nat_0) Bool)
(declare-fun lt_0 (Nat_0 Nat_0) Bool)
(declare-fun gt_0 (Nat_0 Nat_0) Bool)
(declare-fun mult_0 (Nat_0 Nat_0 Nat_0) Bool)
(declare-fun div_0 (Nat_0 Nat_0 Nat_0) Bool)
(declare-fun mod_0 (Nat_0 Nat_0 Nat_0) Bool)
(assert (forall ((y_0 Nat_0))
	(add_0 y_0 Z_0 y_0)))
(assert (forall ((x_60 Nat_0) (y_0 Nat_0) (r_0 Nat_0))
	(=> (add_0 r_0 x_60 y_0)
	    (add_0 (S_0 r_0) (S_0 x_60) y_0))))
(assert (forall ((y_0 Nat_0))
	(minus_0 Z_0 Z_0 y_0)))
(assert (forall ((x_60 Nat_0) (y_0 Nat_0) (r_0 Nat_0))
	(=> (minus_0 r_0 x_60 y_0)
	    (minus_0 (S_0 r_0) (S_0 x_60) y_0))))
(assert (forall ((y_0 Nat_0))
	(le_0 Z_0 y_0)))
(assert (forall ((x_60 Nat_0) (y_0 Nat_0))
	(=> (le_0 x_60 y_0)
	    (le_0 (S_0 x_60) (S_0 y_0)))))
(assert (forall ((y_0 Nat_0))
	(ge_0 y_0 Z_0)))
(assert (forall ((x_60 Nat_0) (y_0 Nat_0))
	(=> (ge_0 x_60 y_0)
	    (ge_0 (S_0 x_60) (S_0 y_0)))))
(assert (forall ((y_0 Nat_0))
	(lt_0 Z_0 (S_0 y_0))))
(assert (forall ((x_60 Nat_0) (y_0 Nat_0))
	(=> (lt_0 x_60 y_0)
	    (lt_0 (S_0 x_60) (S_0 y_0)))))
(assert (forall ((y_0 Nat_0))
	(gt_0 (S_0 y_0) Z_0)))
(assert (forall ((x_60 Nat_0) (y_0 Nat_0))
	(=> (gt_0 x_60 y_0)
	    (gt_0 (S_0 x_60) (S_0 y_0)))))
(assert (forall ((y_0 Nat_0))
	(mult_0 Z_0 Z_0 y_0)))
(assert (forall ((x_60 Nat_0) (y_0 Nat_0) (r_0 Nat_0) (z_1 Nat_0))
	(=>	(and (mult_0 r_0 x_60 y_0)
			(add_0 z_1 r_0 y_0))
		(mult_0 z_1 (S_0 x_60) y_0))))
(assert (forall ((x_60 Nat_0) (y_0 Nat_0))
	(=> (lt_0 x_60 y_0)
	    (div_0 Z_0 x_60 y_0))))
(assert (forall ((x_60 Nat_0) (y_0 Nat_0) (r_0 Nat_0) (z_1 Nat_0))
	(=>	(and (ge_0 x_60 y_0)
			(minus_0 z_1 x_60 y_0)
			(div_0 r_0 z_1 y_0))
		(div_0 (S_0 r_0) x_60 y_0))))
(assert (forall ((x_60 Nat_0) (y_0 Nat_0))
	(=> (lt_0 x_60 y_0)
	    (mod_0 x_60 x_60 y_0))))
(assert (forall ((x_60 Nat_0) (y_0 Nat_0) (r_0 Nat_0) (z_1 Nat_0))
	(=>	(and (ge_0 x_60 y_0)
			(minus_0 z_1 x_60 y_0)
			(mod_0 r_0 z_1 y_0))
		(mod_0 r_0 x_60 y_0))))
(declare-fun and_0 (Bool Bool Bool) Bool)
(declare-fun or_0 (Bool Bool Bool) Bool)
(declare-fun hence_0 (Bool Bool Bool) Bool)
(declare-fun not_0 (Bool Bool) Bool)
(assert (and_0 false false false))
(assert (and_0 false true false))
(assert (and_0 false false true))
(assert (and_0 true true true))
(assert (or_0 false false false))
(assert (or_0 true true false))
(assert (or_0 true false true))
(assert (or_0 true true true))
(assert (hence_0 true false false))
(assert (hence_0 false true false))
(assert (hence_0 true false true))
(assert (hence_0 true true true))
(assert (not_0 true false))
(assert (not_0 false true))
(declare-datatypes ((MutInt_0 0)) (((mutInt_1 (curInt_0 Nat_0) (retInt_0 Nat_0)))))
(declare-fun diseqMutInt_0 (MutInt_0 MutInt_0) Bool)
(declare-fun curInt_1 (Nat_0 MutInt_0) Bool)
(declare-fun retInt_1 (Nat_0 MutInt_0) Bool)
(declare-fun ismutInt_0 (MutInt_0) Bool)
(assert (forall ((x_77 MutInt_0) (x_75 Nat_0) (x_76 Nat_0))
	(=> (= x_77 (mutInt_1 x_75 x_76))
	    (curInt_1 x_75 x_77))))
(assert (forall ((x_77 MutInt_0) (x_75 Nat_0) (x_76 Nat_0))
	(=> (= x_77 (mutInt_1 x_75 x_76))
	    (retInt_1 x_76 x_77))))
(assert (forall ((x_78 Nat_0) (x_79 Nat_0))
	(ismutInt_0 (mutInt_1 x_78 x_79))))
(assert (forall ((x_80 Nat_0) (x_81 Nat_0) (x_82 Nat_0) (x_83 Nat_0))
	(=> (diseqNat_0 x_80 x_82)
	    (diseqMutInt_0 (mutInt_1 x_80 x_81) (mutInt_1 x_82 x_83)))))
(assert (forall ((x_80 Nat_0) (x_81 Nat_0) (x_82 Nat_0) (x_83 Nat_0))
	(=> (diseqNat_0 x_81 x_83)
	    (diseqMutInt_0 (mutInt_1 x_80 x_81) (mutInt_1 x_82 x_83)))))
(declare-fun incmaxrepeat_0 (Nat_0 MutInt_0 MutInt_0) Bool)
(declare-fun incmaxrepeat_1 (Nat_0 MutInt_0 MutInt_0 Bool) Bool)
(declare-fun takemax_0 (MutInt_0 MutInt_0 MutInt_0) Bool)
(declare-fun main_0 (Bool) Bool)
(declare-fun main_1 (Nat_0 Nat_0 Nat_0 Bool Bool) Bool)
(declare-fun main_2 (Nat_0 Nat_0 Nat_0 Bool Bool Bool) Bool)
(declare-fun main_3 (Bool Bool) Bool)
(declare-fun takemax_1 (MutInt_0 MutInt_0 Bool MutInt_0) Bool)
(assert (forall ((x_0 Nat_0) (x_1 MutInt_0) (x_2 MutInt_0))
	(=>	(and (incmaxrepeat_1 x_0 x_1 x_2 true)
			(= x_0 Z_0))
		(incmaxrepeat_0 x_0 x_1 x_2))))
(assert (forall ((x_0 Nat_0) (x_1 MutInt_0) (x_2 MutInt_0))
	(=>	(and (incmaxrepeat_1 x_0 x_1 x_2 false)
			(diseqNat_0 x_0 Z_0))
		(incmaxrepeat_0 x_0 x_1 x_2))))
(assert (forall ((x_3 Nat_0) (x_4 MutInt_0) (x_5 MutInt_0) (x_6 MutInt_0) (x_7 Nat_0) (x_8 Nat_0) (x_9 Nat_0) (x_10 Nat_0) (x_61 Nat_0) (x_62 Nat_0) (x_84 Nat_0) (x_85 Nat_0) (x_86 Nat_0) (x_87 Nat_0) (x_88 Nat_0) (x_89 Nat_0))
	(=>	(and (takemax_0 (mutInt_1 x_84 x_7) (mutInt_1 x_85 x_8) x_6)
			(incmaxrepeat_0 x_61 (mutInt_1 x_7 x_9) (mutInt_1 x_8 x_10))
			(= x_86 x_62)
			(= x_87 x_9)
			(= x_88 x_10)
			(minus_0 x_61 x_3 (S_0 Z_0))
			(add_0 x_62 x_89 (S_0 Z_0))
			(curInt_1 x_84 x_4)
			(curInt_1 x_85 x_5)
			(retInt_1 x_86 x_6)
			(retInt_1 x_87 x_4)
			(retInt_1 x_88 x_5)
			(curInt_1 x_89 x_6))
		(incmaxrepeat_1 x_3 x_4 x_5 false))))
(assert (forall ((x_11 Nat_0) (x_12 MutInt_0) (x_13 MutInt_0) (x_90 Nat_0) (x_91 Nat_0) (x_92 Nat_0) (x_93 Nat_0))
	(=>	(and (= x_90 x_91)
			(= x_92 x_93)
			(retInt_1 x_90 x_12)
			(curInt_1 x_91 x_12)
			(retInt_1 x_92 x_13)
			(curInt_1 x_93 x_13))
		(incmaxrepeat_1 x_11 x_12 x_13 true))))
(assert (forall ((x_14 Bool) (x_15 Nat_0) (x_16 Nat_0) (x_17 Nat_0) (x_18 Nat_0) (x_19 Nat_0) (x_20 Nat_0) (x_21 Nat_0) (x_63 Nat_0))
	(=>	(and (incmaxrepeat_0 x_15 (mutInt_1 x_16 x_19) (mutInt_1 x_17 x_21))
			(= x_20 x_21)
			(= x_18 x_19)
			(main_1 x_15 x_18 x_20 true x_14)
			(ge_0 x_63 x_15)
			(minus_0 x_63 x_18 x_20))
		(main_0 x_14))))
(assert (forall ((x_14 Bool) (x_15 Nat_0) (x_16 Nat_0) (x_17 Nat_0) (x_18 Nat_0) (x_19 Nat_0) (x_20 Nat_0) (x_21 Nat_0) (x_64 Nat_0))
	(=>	(and (incmaxrepeat_0 x_15 (mutInt_1 x_16 x_19) (mutInt_1 x_17 x_21))
			(= x_20 x_21)
			(= x_18 x_19)
			(main_1 x_15 x_18 x_20 false x_14)
			(lt_0 x_64 x_15)
			(minus_0 x_64 x_18 x_20))
		(main_0 x_14))))
(assert (forall ((x_22 Nat_0) (x_23 Nat_0) (x_24 Nat_0) (x_25 Bool) (x_65 Nat_0))
	(=>	(and (main_2 x_22 x_23 x_24 false true x_25)
			(ge_0 x_65 x_22)
			(minus_0 x_65 x_24 x_23))
		(main_1 x_22 x_23 x_24 false x_25))))
(assert (forall ((x_22 Nat_0) (x_23 Nat_0) (x_24 Nat_0) (x_25 Bool) (x_66 Nat_0))
	(=>	(and (main_2 x_22 x_23 x_24 false false x_25)
			(lt_0 x_66 x_22)
			(minus_0 x_66 x_24 x_23))
		(main_1 x_22 x_23 x_24 false x_25))))
(assert (forall ((x_26 Nat_0) (x_27 Nat_0) (x_28 Nat_0) (x_29 Bool))
	(=> (main_3 false x_29)
	    (main_1 x_26 x_27 x_28 true x_29))))
(assert (forall ((x_30 Nat_0) (x_31 Nat_0) (x_32 Nat_0) (x_33 Bool) (x_34 Bool))
	(=> (main_3 true x_34)
	    (main_2 x_30 x_31 x_32 x_33 false x_34))))
(assert (forall ((x_35 Nat_0) (x_36 Nat_0) (x_37 Nat_0) (x_38 Bool) (x_39 Bool))
	(=> (main_3 false x_39)
	    (main_2 x_35 x_36 x_37 x_38 true x_39))))
(assert (forall ((x_40 Bool))
	(=> (= x_40 false)
	    (main_3 false x_40))))
(assert (forall ((x_41 Bool))
	(=> (= x_41 true)
	    (main_3 true x_41))))
(assert (forall ((x_42 MutInt_0) (x_43 MutInt_0) (x_44 MutInt_0) (x_94 Nat_0) (x_95 Nat_0))
	(=>	(and (takemax_1 x_42 x_43 true x_44)
			(ge_0 x_94 x_95)
			(curInt_1 x_94 x_42)
			(curInt_1 x_95 x_43))
		(takemax_0 x_42 x_43 x_44))))
(assert (forall ((x_42 MutInt_0) (x_43 MutInt_0) (x_44 MutInt_0) (x_96 Nat_0) (x_97 Nat_0))
	(=>	(and (takemax_1 x_42 x_43 false x_44)
			(lt_0 x_96 x_97)
			(curInt_1 x_96 x_42)
			(curInt_1 x_97 x_43))
		(takemax_0 x_42 x_43 x_44))))
(assert (forall ((x_45 MutInt_0) (x_46 MutInt_0) (x_47 MutInt_0) (x_48 Nat_0) (x_49 Nat_0) (x_50 Nat_0) (x_51 Nat_0) (x_98 Nat_0) (x_99 Nat_0) (x_100 Nat_0) (x_101 Nat_0))
	(=>	(and (= x_48 x_49)
			(= x_49 x_50)
			(= x_50 x_51)
			(= x_98 x_99)
			(= x_100 x_48)
			(= x_47 (mutInt_1 x_101 x_51))
			(retInt_1 x_98 x_45)
			(curInt_1 x_99 x_45)
			(retInt_1 x_100 x_46)
			(curInt_1 x_101 x_46))
		(takemax_1 x_45 x_46 false x_47))))
(assert (forall ((x_52 MutInt_0) (x_53 MutInt_0) (x_54 MutInt_0) (x_55 Nat_0) (x_56 Nat_0) (x_57 Nat_0) (x_58 Nat_0) (x_102 Nat_0) (x_103 Nat_0) (x_104 Nat_0) (x_105 Nat_0))
	(=>	(and (= x_55 x_56)
			(= x_56 x_57)
			(= x_57 x_58)
			(= x_102 x_55)
			(= x_103 x_104)
			(= x_54 (mutInt_1 x_105 x_58))
			(retInt_1 x_102 x_52)
			(retInt_1 x_103 x_53)
			(curInt_1 x_104 x_53)
			(curInt_1 x_105 x_52))
		(takemax_1 x_52 x_53 true x_54))))
(assert (forall ((x_59 Nat_0))
	(=> (main_0 true)
	    false)))
(check-sat)
